000 000 000 000 000 000 000 000 000 001 003 003 006 004 002 001 002 004 003 003 006 004 004 003 002 001 001 001 001 005 002
000 000 000 000 000 001 000 000 001 002 002 005 003 004 003 002 003 004 005 006 007 004 005 005 002 002 001 001 001 005 000
000 000 000 000 001 001 001 001 001 001 003 002 001 001 001 002 004 007 005 005 004 004 010 005 002 002 001 000 000 001 001
000 000 000 000 000 001 001 002 003 002 002 001 000 000 001 004 004 003 006 006 006 005 008 006 003 002 001 000 000 001 001
000 000 000 000 000 002 001 002 003 002 001 000 000 000 000 010 005 009 004 007 007 006 006 006 004 002 001 001 -99 -99 -99
000 000 000 000 000 001 003 003 002 002 000 000 001 000 003 008 004 007 003 007 007 010 006 008 003 001 001 -99 -99 -99 -99
000 000 000 000 000 002 005 002 002 001 001 000 001 000 001 002 003 006 006 005 005 006 008 011 004 002 002 -99 -99 -99 -99
000 000 000 000 000 001 004 004 002 001 001 000 000 000 000 001 001 003 007 005 004 008 006 012 005 003 001 -99 000 000 -99
000 000 000 000 001 002 003 002 002 001 001 000 000 000 000 000 001 003 008 005 003 004 004 006 004 003 001 001 001 000 000
000 000 000 000 001 002 003 003 002 001 001 001 000 000 000 000 001 002 003 001 002 004 005 006 005 004 003 002 001 000 000
000 000 000 000 001 002 002 003 003 003 002 001 003 001 000 001 001 001 001 000 001 004 004 006 002 005 004 003 001 000 000
000 000 000 000 000 001 001 003 004 002 002 002 001 000 001 000 001 000 000 000 002 005 006 008 004 007 006 005 001 000 000
000 000 000 000 000 001 001 003 005 002 001 001 000 000 000 000 001 000 000 000 000 001 004 014 012 006 013 010 002 000 000
000 000 000 000 000 001 002 002 002 002 001 000 000 001 000 000 000 000 000 000 001 002 005 020 021 012 017 016 006 001 000
000 000 000 000 001 002 002 002 001 002 001 000 000 000 000 000 000 000 000 000 001 003 006 016 027 022 021 025 025 004 000
000 000 000 000 003 002 001 000 000 001 000 000 000 000 000 000 000 000 000 000 001 002 007 011 026 024 027 034 028 006 002
000 000 000 000 002 001 000 000 000 000 000 000 000 000 000 000 000 000 000 000 000 004 007 008 010 034 022 022 020 021 005
000 000 000 000 000 000 000 000 000 000 000 000 000 000 000 000 000 000 000 000 000 002 010 003 006 014 008 010 013 017 007
001 000 001 001 001 000 000 000 000 000 000 000 000 000 000 000 000 000 000 000 000 004 011 004 006 011 004 008 010 013 007
001 000 001 001 002 000 000 000 000 001 000 000 000 000 000 001 001 000 000 000 001 007 009 006 005 005 002 003 006 009 004
000 000 000 001 001 000 001 001 000 001 000 000 000 000 000 001 002 001 000 001 001 007 010 007 005 003 003 003 005 007 006
000 001 000 000 001 000 000 001 001 001 000 000 000 000 001 002 003 002 001 001 001 004 008 006 005 004 003 003 005 007 006
001 001 000 000 001 001 001 001 001 001 001 000 000 000 001 002 003 003 002 000 000 002 005 006 005 004 -99 -99 -99 -99 004
000 000 000 000 000 000 000 001 001 001 000 000 000 000 000 004 004 003 003 000 000 001 003 006 006 -99 -99 -99 -99 -99 004
000 000 000 000 000 000 000 000 000 000 000 000 000 000 000 006 006 004 003 001 001 001 002 005 006 -99 -99 -99 -99 005 006
000 000 000 000 000 000 000 000 000 000 000 000 000 000 000 004 006 007 005 003 002 001 001 004 -99 -99 -99 -99 -99 006 009
000 000 000 000 000 000 000 000 000 000 000 000 000 000 000 000 003 008 005 004 003 001 001 005 005 -99 -99 -99 006 004 006
000 000 000 000 000 -99 000 000 000 000 000 000 000 000 000 000 003 004 002 003 003 002 004 005 005 -99 -99 -99 005 003 003
000 000 000 000 000 000 000 000 000 001 001 000 001 000 000 000 000 001 000 001 002 003 008 004 004 003 -99 -99 004 003 002
000 000 000 000 000 000 000 000 000 001 001 000 000 000 000 000 000 000 000 000 001 004 011 005 004 003 001 -99 004 004 002
000 000 000 000 000 000 000 000 000 000 000 000 000 000 000 000 000 000 000 001 000 004 008 006 004 002 001 -99 -99 003 001
000 000 000 000 000 000 000 000 000 000 000 000 000 000 000 -99 000 000 000 001 002 004 006 006 003 001 001 -99 000 001 001
000 000 000 000 000 000 000 000 000 000 000 000 000 000 000 -99 000 000 000 000 001 008 011 006 003 001 -99 000 000 000 000
000 000 000 000 000 000 000 000 000 000 000 000 000 000 000 000 000 000 000 000 001 006 013 007 002 000 000 000 000 000 000
000 000 000 000 000 000 000 000 000 000 000 000 000 000 000 000 000 000 000 000 001 008 014 006 001 000 000 000 000 000 000
000 000 000 000 000 000 000 000 000 000 000 000 000 000 000 000 000 000 000 000 000 005 010 003 001 000 000 001 000 000 000
000 000 000 000 000 000 000 000 000 000 000 000 000 000 000 000 000 000 000 000 000 002 003 002 003 001 001 001 000 000 000
000 000 000 000 000 000 000 000 000 000 000 000 000 000 000 000 000 000 000 -99 000 001 001 001 001 001 000 000 000 000 -99
000 000 000 000 000 000 001 000 000 000 000 000 000 000 000 000 000 000 -99 000 001 001 000 000 001 000 000 000 000 000 000
000 000 000 000 000 003 002 000 000 000 000 000 000 000 000 000 000 000 -99 -99 001 000 000 001 000 000 000 000 000 000 000
000 000 000 000 000 001 001 001 000 000 000 000 000 000 000 000 000 000 000 000 000 000 000 000 000 000 000 000 000 002 000
000 000 000 000 000 000 001 001 000 000 000 000 000 000 000 000 000 000 000 000 000 000 000 000 000 000 -99 000 000 001 000
000 000 000 000 001 001 001 001 001 001 001 001 001 000 000 000 000 000 000 000 000 000 000 000 000 000 -99 000 000 001 000
000 000 000 002 002 001 002 001 001 001 001 001 001 000 000 000 000 000 000 000 000 000 000 000 000 000 -99 -99 000 001 000
000 000 000 001 001 001 003 002 001 001 001 000 000 000 000 000 000 000 000 000 000 000 000 000 000 -99 -99 -99 000 -99 000
000 000 000 000 000 002 003 003 002 001 000 000 000 000 000 000 000 000 000 000 000 000 000 000 000 001 000 -99 -99 -99 000
000 000 000 000 001 002 002 003 001 001 000 000 000 000 000 000 000 000 000 000 000 000 000 000 001 001 001 -99 -99 000 000
000 000 000 000 001 001 002 004 001 000 000 000 000 000 000 000 000 000 001 000 000 001 000 001 001 004 001 001 000 000 000
-99 -99 000 000 000 000 001 001 000 000 000 000 000 000 000 000 000 000 001 000 001 002 007 002 003 002 001 001 000 -99 000
-99 000 000 000 000 000 000 001 000 001 001 001 000 000 000 000 000 000 000 000 003 004 004 002 001 001 002 001 001 000 000
-99 000 000 000 000 000 001 001 003 003 005 001 000 000 000 000 001 000 001 003 002 008 003 001 000 003 003 003 001 001 000
-99 000 000 000 000 000 003 004 006 010 005 001 000 000 000 000 000 000 003 003 006 004 002 000 000 003 001 002 006 004 003
-99 000 000 000 000 001 004 005 005 006 002 000 000 000 001 000 000 001 003 006 011 007 001 000 000 000 000 006 015 007 001
-99 -99 000 000 000 002 002 005 006 006 002 001 000 000 003 000 000 001 003 010 010 009 002 000 000 000 003 022 035 006 000
-99 -99 000 000 000 001 004 010 007 006 003 001 001 001 002 001 001 001 002 004 009 005 000 000 000 001 017 011 010 004 001
